QPLIB_3877
QBB
maximize
630 # number of variables
1224 # number of quadratic terms in objective
2 1 4.0
96 1 -4.0
295 1 4.0
311 1 -4.0
95 2 -4.0
283 2 4.0
310 2 -4.0
50 3 4.0
315 3 -4.0
470 3 4.0
502 3 -4.0
5 4 -4.0
415 4 4.0
473 4 4.0
539 4 -4.0
20 5 4.0
382 5 -4.0
412 5 4.0
7 6 4.0
112 6 -4.0
279 6 -4.0
389 6 4.0
71 7 -4.0
131 7 -4.0
586 7 4.0
247 8 -4.0
315 8 -4.0
507 8 4.0
536 8 4.0
10 9 4.0
120 9 -4.0
272 9 -4.0
364 9 4.0
85 10 -4.0
119 10 -4.0
321 10 4.0
62 11 -4.0
302 11 4.0
366 11 4.0
391 11 -4.0
13 12 4.0
78 12 -4.0
156 12 4.0
396 12 -4.0
294 13 -4.0
518 13 -4.0
553 13 4.0
75 14 -4.0
291 14 4.0
342 14 4.0
421 14 -4.0
16 15 4.0
145 15 4.0
306 15 -4.0
350 15 -4.0
102 16 -4.0
516 16 4.0
555 16 -4.0
18 17 4.0
126 17 4.0
261 17 -4.0
457 17 -4.0
92 18 4.0
248 18 -4.0
253 18 -4.0
20 19 4.0
247 19 -4.0
417 19 4.0
541 19 -4.0
580 20 -4.0
583 20 -4.0
88 21 -4.0
280 21 4.0
323 21 4.0
449 21 -4.0
292 22 4.0
395 22 4.0
481 22 -4.0
596 22 -4.0
24 23 4.0
135 23 4.0
327 23 -4.0
372 23 -4.0
89 24 -4.0
485 24 4.0
598 24 -4.0
26 25 4.0
27 25 -4.0
115 25 4.0
147 25 -4.0
43 26 -4.0
250 26 -4.0
523 26 4.0
114 27 4.0
250 27 -4.0
601 27 4.0
29 28 4.0
69 28 -4.0
433 28 4.0
460 28 -4.0
115 29 -4.0
116 29 4.0
251 29 -4.0
31 30 -4.0
441 30 4.0
626 30 4.0
627 30 -4.0
383 31 4.0
578 31 -4.0
622 31 4.0
293 32 -4.0
303 32 4.0
371 32 4.0
425 32 -4.0
123 33 4.0
273 33 4.0
349 33 -4.0
399 33 -4.0
328 34 4.0
330 34 -4.0
558 34 -4.0
559 34 4.0
36 35 -4.0
106 35 4.0
158 35 -4.0
559 35 4.0
124 36 4.0
125 36 4.0
253 36 -4.0
38 37 4.0
81 37 -4.0
431 37 -4.0
463 37 4.0
67 38 -4.0
106 38 -4.0
107 38 4.0
160 39 4.0
185 39 4.0
505 39 -4.0
623 39 -4.0
41 40 -4.0
132 40 -4.0
203 40 4.0
477 40 4.0
168 41 4.0
169 41 4.0
340 41 -4.0
304 42 -4.0
324 42 4.0
347 42 4.0
453 42 -4.0
44 43 -4.0
351 43 4.0
602 43 4.0
135 44 -4.0
205 44 4.0
209 44 4.0
46 45 -4.0
93 45 4.0
524 45 -4.0
602 45 4.0
137 46 4.0
255 46 -4.0
430 46 4.0
48 47 4.0
354 47 -4.0
405 47 -4.0
494 47 4.0
79 48 -4.0
93 48 -4.0
566 48 4.0
139 49 4.0
435 49 -4.0
463 49 -4.0
494 49 4.0
174 50 4.0
380 50 -4.0
473 50 -4.0
196 51 4.0
448 51 4.0
510 51 -4.0
589 51 -4.0
196 52 -4.0
244 52 4.0
302 52 4.0
512 52 -4.0
325 53 -4.0
344 53 4.0
346 53 4.0
484 53 -4.0
346 54 4.0
396 54 -4.0
554 54 4.0
596 54 -4.0
103 55 -4.0
248 55 4.0
399 55 -4.0
456 55 4.0
331 56 -4.0
375 56 -4.0
528 56 4.0
607 56 4.0
129 57 4.0
433 57 -4.0
464 57 -4.0
528 57 4.0
59 58 4.0
61 58 4.0
259 58 -4.0
448 58 -4.0
279 59 -4.0
61 60 4.0
187 60 4.0
323 60 -4.0
545 60 -4.0
179 61 -4.0
419 61 -4.0
63 62 4.0
325 62 -4.0
368 62 4.0
187 63 -4.0
240 63 4.0
480 63 -4.0
345 64 -4.0
368 64 4.0
370 64 4.0
515 64 -4.0
171 65 -4.0
347 65 -4.0
370 65 4.0
517 65 4.0
90 66 -4.0
249 66 4.0
372 66 -4.0
489 66 4.0
105 67 4.0
281 67 4.0
562 67 -4.0
69 68 -4.0
117 68 4.0
496 68 -4.0
567 68 4.0
183 69 4.0
407 69 4.0
71 70 4.0
72 70 -4.0
74 70 4.0
477 70 -4.0
585 72 4.0
74 73 4.0
178 73 4.0
342 73 -4.0
587 73 -4.0
188 74 -4.0
388 74 -4.0
345 75 -4.0
392 75 4.0
451 75 4.0
369 76 -4.0
392 76 4.0
394 76 4.0
552 76 -4.0
144 77 4.0
273 77 -4.0
371 77 -4.0
394 77 4.0
427 78 4.0
487 78 4.0
558 78 -4.0
92 79 4.0
523 79 -4.0
607 79 4.0
81 80 -4.0
108 80 4.0
530 80 -4.0
611 80 4.0
193 81 4.0
376 81 4.0
83 82 4.0
381 82 -4.0
580 82 4.0
625 82 -4.0
218 83 4.0
358 83 -4.0
501 83 -4.0
85 84 4.0
86 84 -4.0
87 84 4.0
510 84 -4.0
168 86 4.0
197 87 -4.0
363 87 -4.0
364 87 4.0
369 88 -4.0
423 88 4.0
593 88 4.0
134 89 4.0
395 89 -4.0
424 89 4.0
91 90 4.0
455 90 4.0
519 90 -4.0
134 91 -4.0
235 91 4.0
557 91 -4.0
490 92 -4.0
491 92 -4.0
125 93 4.0
460 93 -4.0
95 94 4.0
354 94 -4.0
569 94 4.0
570 94 -4.0
116 95 4.0
566 95 -4.0
109 96 4.0
437 96 -4.0
569 96 4.0
214 97 4.0
335 97 -4.0
469 97 -4.0
536 97 4.0
99 98 4.0
100 98 -4.0
101 98 4.0
545 98 -4.0
584 99 -4.0
177 100 4.0
204 101 -4.0
340 101 -4.0
389 101 4.0
122 102 4.0
425 102 -4.0
452 102 4.0
104 103 4.0
488 103 4.0
556 103 -4.0
122 104 -4.0
230 104 4.0
600 104 -4.0
457 105 4.0
458 105 -4.0
459 105 -4.0
430 106 4.0
431 106 -4.0
223 107 -4.0
309 107 4.0
526 107 -4.0
252 108 -4.0
332 108 -4.0
571 108 4.0
252 109 -4.0
285 109 4.0
296 109 -4.0
211 110 4.0
314 110 -4.0
439 110 -4.0
504 110 4.0
186 111 4.0
584 111 -4.0
322 112 4.0
365 112 4.0
421 112 -4.0
136 113 4.0
351 113 -4.0
398 113 4.0
599 113 -4.0
222 114 -4.0
251 114 4.0
429 114 -4.0
146 115 4.0
405 115 -4.0
227 116 -4.0
492 116 -4.0
254 117 -4.0
355 117 -4.0
531 117 4.0
207 118 4.0
297 118 -4.0
410 118 -4.0
472 118 4.0
195 119 4.0
321 120 4.0
341 120 4.0
449 120 -4.0
482 121 4.0
512 121 4.0
513 121 -4.0
549 121 -4.0
305 122 -4.0
397 122 4.0
328 123 -4.0
397 123 4.0
558 123 -4.0
237 124 -4.0
558 124 4.0
560 124 -4.0
402 125 -4.0
404 125 -4.0
157 126 4.0
375 126 -4.0
460 126 -4.0
233 127 -4.0
460 127 4.0
461 127 -4.0
611 127 4.0
256 128 4.0
284 128 -4.0
376 128 4.0
613 128 -4.0
256 129 -4.0
376 129 -4.0
497 129 4.0
202 130 4.0
286 130 -4.0
379 130 -4.0
441 130 4.0
419 131 4.0
343 132 -4.0
478 132 4.0
588 132 4.0
165 133 4.0
480 133 4.0
550 133 -4.0
592 133 -4.0
326 134 -4.0
426 134 4.0
136 135 -4.0
426 135 4.0
137 136 4.0
601 136 -4.0
242 137 -4.0
521 137 -4.0
257 138 4.0
274 138 -4.0
407 138 4.0
568 138 -4.0
257 139 -4.0
407 139 -4.0
465 139 4.0
149 140 -4.0
358 140 -4.0
412 140 4.0
579 140 4.0
161 141 4.0
263 141 -4.0
318 141 4.0
337 141 -4.0
279 142 -4.0
388 142 4.0
234 143 4.0
450 143 -4.0
451 143 -4.0
593 143 4.0
348 144 -4.0
454 144 4.0
487 144 -4.0
307 145 -4.0
454 145 4.0
488 145 -4.0
210 146 -4.0
459 146 4.0
603 146 -4.0
405 147 -4.0
561 147 4.0
608 147 4.0
260 148 4.0
268 148 -4.0
434 148 4.0
529 148 -4.0
150 149 4.0
265 149 -4.0
622 149 4.0
297 150 -4.0
377 150 4.0
436 150 -4.0
272 151 -4.0
363 151 4.0
244 152 4.0
365 152 4.0
509 152 -4.0
510 152 -4.0
229 153 4.0
392 153 4.0
422 153 -4.0
423 153 -4.0
229 154 4.0
425 154 -4.0
593 154 4.0
595 154 -4.0
220 155 -4.0
517 155 4.0
595 155 4.0
596 155 -4.0
329 156 -4.0
455 156 -4.0
486 156 4.0
330 157 -4.0
491 157 4.0
560 157 -4.0
375 158 -4.0
564 158 4.0
604 158 4.0
167 159 4.0
262 159 4.0
264 159 -4.0
495 159 -4.0
286 160 4.0
314 160 -4.0
315 160 -4.0
270 161 -4.0
176 162 -4.0
240 162 4.0
390 162 4.0
477 162 -4.0
198 163 -4.0
225 163 4.0
368 163 4.0
590 163 -4.0
368 164 4.0
369 164 -4.0
371 164 -4.0
551 164 4.0
234 165 4.0
453 165 -4.0
551 165 -4.0
226 166 -4.0
551 166 4.0
552 166 -4.0
554 166 4.0
233 167 -4.0
463 167 4.0
464 167 -4.0
219 168 -4.0
545 168 -4.0
420 169 4.0
448 169 -4.0
449 169 -4.0
344 170 4.0
345 170 -4.0
347 170 -4.0
514 170 4.0
172 171 4.0
555 171 4.0
599 171 -4.0
230 172 -4.0
514 172 4.0
515 172 -4.0
174 173 -4.0
175 173 4.0
276 173 -4.0
316 173 4.0
214 174 4.0
384 174 -4.0
287 175 -4.0
289 175 4.0
300 175 -4.0
177 176 4.0
179 176 4.0
585 176 -4.0
224 177 -4.0
510 177 -4.0
179 178 4.0
343 178 -4.0
451 178 -4.0
421 179 -4.0
324 180 4.0
343 180 4.0
345 180 -4.0
511 180 -4.0
324 181 4.0
325 181 -4.0
346 181 -4.0
483 181 4.0
235 182 -4.0
273 182 4.0
483 182 4.0
484 182 -4.0
310 183 -4.0
432 183 4.0
564 183 -4.0
207 184 4.0
287 184 4.0
336 184 -4.0
624 184 -4.0
218 185 4.0
287 185 -4.0
414 185 -4.0
228 186 -4.0
477 186 -4.0
509 186 4.0
188 187 4.0
189 187 -4.0
391 188 -4.0
509 188 4.0
190 189 4.0
367 189 -4.0
420 189 4.0
303 190 4.0
325 190 -4.0
478 190 -4.0
303 191 4.0
304 191 -4.0
370 191 -4.0
452 191 4.0
232 192 -4.0
351 192 4.0
598 192 4.0
599 192 -4.0
331 193 -4.0
461 193 4.0
526 193 -4.0
202 194 4.0
298 194 4.0
317 194 -4.0
579 194 -4.0
447 195 -4.0
448 195 -4.0
544 195 4.0
197 196 4.0
198 196 -4.0
366 197 -4.0
544 197 4.0
199 198 4.0
390 198 4.0
292 199 4.0
304 199 -4.0
450 199 -4.0
292 200 4.0
293 200 -4.0
394 200 -4.0
424 200 4.0
237 201 -4.0
328 201 4.0
555 201 4.0
556 201 -4.0
535 202 -4.0
537 202 -4.0
204 203 4.0
422 203 -4.0
548 203 -4.0
342 204 -4.0
586 204 4.0
242 205 -4.0
518 205 4.0
519 205 -4.0
614 206 4.0
615 206 -4.0
617 206 4.0
618 206 -4.0
503 207 -4.0
506 207 -4.0
321 208 4.0
322 208 -4.0
323 208 -4.0
589 208 4.0
210 209 4.0
307 209 -4.0
374 209 -4.0
428 210 -4.0
522 210 4.0
316 211 4.0
471 211 -4.0
474 211 -4.0
327 212 4.0
346 212 4.0
347 212 -4.0
349 212 -4.0
332 213 4.0
609 213 4.0
610 213 -4.0
613 213 -4.0
440 214 -4.0
442 214 -4.0
340 215 4.0
585 215 -4.0
222 216 4.0
459 216 -4.0
527 216 -4.0
565 216 4.0
355 217 4.0
565 217 4.0
566 217 -4.0
568 217 -4.0
411 218 -4.0
413 218 -4.0
363 219 4.0
397 220 4.0
597 220 4.0
599 220 -4.0
373 221 4.0
397 221 4.0
398 221 -4.0
400 221 -4.0
430 222 4.0
432 222 -4.0
376 223 4.0
527 223 4.0
529 223 -4.0
388 224 4.0
393 225 4.0
592 225 -4.0
594 225 -4.0
398 226 4.0
553 226 4.0
556 226 -4.0
407 227 4.0
493 227 4.0
495 227 -4.0
419 228 4.0
549 229 -4.0
550 229 -4.0
516 230 4.0
519 230 -4.0
232 231 4.0
427 231 4.0
429 231 -4.0
521 231 -4.0
600 232 4.0
601 232 -4.0
434 233 4.0
462 233 4.0
512 234 -4.0
513 234 -4.0
485 235 4.0
487 235 -4.0
237 236 4.0
455 236 4.0
458 236 -4.0
560 236 -4.0
557 237 4.0
239 238 4.0
476 238 -4.0
246 239 -4.0
628 239 4.0
629 239 -4.0
588 240 -4.0
591 240 -4.0
242 241 4.0
488 241 4.0
490 241 -4.0
603 241 -4.0
520 242 4.0
508 243 -4.0
630 243 4.0
546 244 -4.0
548 244 -4.0
535 245 4.0
619 245 4.0
620 245 -4.0
623 245 -4.0
630 246 4.0
505 247 4.0
539 247 -4.0
307 248 -4.0
602 248 -4.0
329 249 -4.0
457 249 -4.0
559 249 -4.0
352 250 -4.0
427 250 4.0
605 251 -4.0
607 251 -4.0
312 252 -4.0
614 252 4.0
373 253 -4.0
455 253 4.0
283 254 4.0
312 254 -4.0
333 254 -4.0
400 255 -4.0
457 255 -4.0
488 255 4.0
333 256 -4.0
356 256 -4.0
356 257 -4.0
377 257 -4.0
266 258 -4.0
542 258 -4.0
272 259 -4.0
377 260 -4.0
408 260 -4.0
435 260 -4.0
353 261 -4.0
431 261 -4.0
522 261 4.0
408 262 -4.0
436 262 -4.0
464 262 -4.0
277 263 -4.0
436 264 -4.0
466 264 -4.0
496 264 -4.0
314 265 -4.0
356 265 4.0
466 265 -4.0
267 266 -4.0
299 266 4.0
360 266 -4.0
289 267 -4.0
466 268 -4.0
498 268 -4.0
530 268 -4.0
286 269 -4.0
333 269 4.0
335 269 -4.0
498 269 -4.0
271 270 -4.0
288 270 4.0
385 270 -4.0
300 271 -4.0
509 272 4.0
598 273 4.0
498 274 -4.0
532 274 -4.0
570 274 -4.0
297 275 -4.0
312 275 4.0
358 275 -4.0
532 275 -4.0
277 276 4.0
298 276 -4.0
319 276 -4.0
278 277 -4.0
416 277 -4.0
319 278 -4.0
544 279 4.0
292 280 -4.0
303 280 4.0
591 280 4.0
282 281 -4.0
308 281 -4.0
404 281 -4.0
309 282 -4.0
354 282 -4.0
492 282 4.0
295 283 -4.0
355 283 4.0
532 284 -4.0
572 284 -4.0
615 284 -4.0
314 285 -4.0
379 285 -4.0
572 285 -4.0
574 286 -4.0
288 287 -4.0
317 288 -4.0
338 288 -4.0
290 289 -4.0
444 289 -4.0
338 290 -4.0
293 291 -4.0
324 291 4.0
548 291 4.0
479 293 -4.0
396 294 -4.0
453 294 -4.0
483 294 4.0
572 295 -4.0
617 295 -4.0
335 296 -4.0
410 296 -4.0
617 296 -4.0
380 297 -4.0
299 298 -4.0
383 298 -4.0
336 299 -4.0
361 299 -4.0
301 300 -4.0
628 300 -4.0
361 301 -4.0
304 302 -4.0
344 302 4.0
306 305 -4.0
484 305 -4.0
514 305 4.0
486 306 -4.0
597 306 4.0
520 307 4.0
310 308 -4.0
353 308 -4.0
567 308 4.0
311 309 -4.0
612 309 -4.0
311 310 -4.0
569 311 -4.0
313 312 -4.0
358 313 -4.0
439 313 -4.0
618 313 4.0
316 315 4.0
359 316 -4.0
318 317 -4.0
413 317 -4.0
359 318 -4.0
386 318 -4.0
320 319 -4.0
582 319 -4.0
386 320 -4.0
388 321 4.0
363 322 4.0
584 322 4.0
478 323 -4.0
327 326 -4.0
515 326 -4.0
551 326 4.0
454 327 -4.0
401 328 4.0
401 329 -4.0
557 329 4.0
401 330 -4.0
403 330 -4.0
332 331 4.0
612 331 -4.0
614 332 4.0
334 333 -4.0
379 334 -4.0
469 334 -4.0
573 334 4.0
622 335 -4.0
337 336 -4.0
442 336 -4.0
384 337 -4.0
417 337 -4.0
339 338 -4.0
540 338 -4.0
417 339 -4.0
447 340 -4.0
450 341 4.0
511 341 -4.0
546 341 4.0
511 342 -4.0
479 343 -4.0
367 344 4.0
349 348 -4.0
552 348 -4.0
595 348 4.0
426 349 -4.0
352 350 -4.0
427 350 -4.0
518 350 4.0
428 351 4.0
428 352 -4.0
600 352 4.0
524 353 -4.0
565 353 4.0
355 354 4.0
357 356 -4.0
410 357 -4.0
501 357 -4.0
533 357 4.0
360 359 -4.0
474 359 -4.0
414 360 -4.0
445 360 -4.0
362 361 -4.0
583 361 -4.0
445 362 -4.0
366 364 -4.0
420 364 4.0
422 365 4.0
547 365 -4.0
547 366 -4.0
369 367 -4.0
547 367 -4.0
597 370 4.0
597 371 -4.0
373 372 -4.0
555 372 4.0
456 373 -4.0
430 374 -4.0
456 374 -4.0
561 374 4.0
527 375 4.0
378 377 -4.0
439 378 -4.0
499 378 4.0
534 378 -4.0
381 379 -4.0
382 380 -4.0
577 380 -4.0
382 381 -4.0
534 381 -4.0
383 382 -4.0
443 383 -4.0
385 384 -4.0
506 384 -4.0
443 385 -4.0
476 385 -4.0
387 386 -4.0
629 386 -4.0
476 387 -4.0
390 389 4.0
391 389 -4.0
590 390 -4.0
590 391 -4.0
393 392 4.0
395 393 -4.0
595 393 4.0
553 394 4.0
553 395 -4.0
398 396 4.0
400 399 -4.0
598 399 4.0
489 400 -4.0
402 401 -4.0
489 402 -4.0
604 402 4.0
404 403 -4.0
429 403 4.0
524 403 -4.0
406 404 -4.0
493 405 4.0
491 406 -4.0
493 406 -4.0
609 406 4.0
409 408 -4.0
574 408 -4.0
467 409 4.0
469 409 -4.0
576 409 -4.0
411 410 -4.0
536 411 -4.0
576 411 -4.0
413 412 4.0
535 412 -4.0
475 413 -4.0
416 414 -4.0
537 414 -4.0
445 415 4.0
508 415 -4.0
627 415 4.0
475 416 -4.0
508 416 -4.0
418 417 -4.0
508 418 -4.0
586 419 4.0
423 420 -4.0
423 421 -4.0
479 422 -4.0
516 424 4.0
594 424 -4.0
516 425 -4.0
600 426 4.0
429 428 -4.0
462 431 4.0
462 432 -4.0
525 432 -4.0
434 433 4.0
609 433 4.0
435 434 -4.0
465 435 -4.0
438 436 -4.0
438 437 -4.0
465 437 -4.0
574 437 -4.0
501 438 -4.0
621 438 -4.0
440 439 -4.0
504 440 -4.0
621 440 -4.0
442 441 4.0
503 441 -4.0
507 442 -4.0
444 443 -4.0
580 443 -4.0
507 444 -4.0
541 444 -4.0
446 445 -4.0
541 446 -4.0
451 449 -4.0
589 450 -4.0
485 452 4.0
550 452 -4.0
485 453 -4.0
557 454 4.0
458 456 -4.0
604 458 -4.0
461 459 -4.0
563 461 -4.0
567 462 4.0
565 463 4.0
497 464 -4.0
467 465 -4.0
468 466 -4.0
468 467 -4.0
497 467 -4.0
470 468 -4.0
534 468 -4.0
471 469 -4.0
471 470 -4.0
575 470 -4.0
472 471 -4.0
474 472 4.0
505 472 4.0
504 473 4.0
538 473 4.0
538 474 -4.0
625 475 -4.0
628 475 -4.0
539 476 4.0
480 478 -4.0
481 479 -4.0
481 480 -4.0
482 481 -4.0
484 482 -4.0
514 482 -4.0
513 483 -4.0
517 486 4.0
520 486 4.0
520 487 -4.0
490 489 -4.0
561 490 -4.0
492 491 -4.0
606 492 -4.0
528 493 4.0
495 494 4.0
527 494 4.0
496 495 -4.0
531 496 -4.0
499 497 -4.0
500 498 -4.0
500 499 -4.0
531 499 -4.0
502 500 -4.0
576 500 -4.0
503 501 -4.0
503 502 -4.0
620 502 -4.0
506 504 4.0
581 505 4.0
581 506 -4.0
582 507 -4.0
512 511 -4.0
515 513 -4.0
519 517 -4.0
554 518 4.0
522 521 -4.0
523 521 -4.0
525 522 4.0
525 523 -4.0
526 524 4.0
526 525 -4.0
529 528 4.0
530 529 -4.0
571 530 -4.0
533 531 -4.0
619 532 -4.0
571 533 -4.0
619 533 -4.0
535 534 -4.0
537 536 4.0
626 537 -4.0
540 538 -4.0
628 538 -4.0
542 539 -4.0
542 540 -4.0
626 540 -4.0
543 541 -4.0
543 542 -4.0
546 544 -4.0
546 545 -4.0
549 547 -4.0
549 548 -4.0
552 550 -4.0
556 554 -4.0
562 559 4.0
562 560 -4.0
563 561 4.0
563 562 -4.0
564 563 -4.0
566 564 -4.0
568 567 4.0
570 568 -4.0
616 569 4.0
616 570 -4.0
573 571 -4.0
575 572 -4.0
575 573 -4.0
616 573 -4.0
577 574 -4.0
577 575 -4.0
578 576 -4.0
578 577 -4.0
579 578 -4.0
580 579 -4.0
582 581 -4.0
583 581 -4.0
630 582 4.0
630 583 -4.0
587 584 -4.0
587 585 -4.0
588 586 -4.0
588 587 -4.0
591 589 -4.0
592 590 -4.0
592 591 -4.0
594 593 -4.0
596 594 -4.0
603 601 -4.0
605 602 4.0
605 603 -4.0
606 604 4.0
606 605 -4.0
608 606 -4.0
610 607 4.0
609 608 -4.0
610 608 -4.0
611 610 -4.0
613 611 4.0
614 612 4.0
615 612 -4.0
615 613 -4.0
618 616 -4.0
620 617 -4.0
620 618 -4.0
621 619 -4.0
623 621 -4.0
624 622 4.0
624 623 -4.0
625 624 -4.0
627 625 -4.0
629 626 -4.0
629 627 -4.0
0.0 # default value for linear coefficients in objective
384 # number of non-default linear coefficients in objective
247 2.0
248 2.0
249 2.0
250 2.0
251 2.0
252 2.0
253 2.0
254 2.0
255 2.0
256 2.0
257 2.0
258 2.0
259 2.0
260 2.0
261 2.0
262 2.0
263 2.0
264 4.0
265 2.0
266 2.0
267 2.0
268 4.0
269 2.0
270 2.0
271 2.0
272 2.0
273 -2.0
274 4.0
275 2.0
276 2.0
277 2.0
278 2.0
279 2.0
280 -2.0
281 2.0
282 2.0
283 -2.0
284 4.0
285 2.0
286 2.0
287 2.0
288 2.0
289 2.0
290 2.0
291 -2.0
292 -2.0
293 4.0
294 2.0
295 2.0
296 4.0
297 4.0
298 2.0
299 2.0
300 4.0
301 2.0
302 -2.0
303 -4.0
304 4.0
305 2.0
306 2.0
307 2.0
308 2.0
309 2.0
310 4.0
311 4.0
312 2.0
313 2.0
314 4.0
315 2.0
316 -2.0
317 4.0
318 2.0
319 4.0
320 2.0
321 -4.0
322 -2.0
323 2.0
324 -4.0
325 4.0
326 2.0
327 2.0
328 -2.0
329 2.0
330 4.0
331 2.0
332 -2.0
333 2.0
334 2.0
335 4.0
336 4.0
337 4.0
338 4.0
339 2.0
340 2.0
341 -2.0
342 2.0
343 2.0
344 -4.0
345 4.0
346 -2.0
347 2.0
348 2.0
349 4.0
350 2.0
351 -2.0
352 2.0
353 2.0
354 2.0
355 -2.0
356 2.0
357 2.0
358 4.0
359 4.0
360 4.0
361 4.0
362 2.0
363 -2.0
364 -2.0
365 -2.0
366 2.0
367 2.0
368 -4.0
369 4.0
370 -2.0
371 2.0
372 2.0
373 2.0
374 2.0
375 2.0
376 -2.0
377 2.0
378 2.0
379 4.0
380 4.0
381 4.0
382 4.0
383 2.0
384 4.0
385 4.0
386 4.0
387 2.0
388 -2.0
389 -2.0
390 -2.0
391 4.0
392 -4.0
393 -2.0
394 -2.0
395 2.0
396 2.0
397 -4.0
398 -2.0
399 2.0
400 4.0
401 2.0
402 2.0
403 2.0
404 4.0
405 2.0
406 2.0
407 -2.0
408 4.0
409 2.0
410 4.0
411 4.0
412 -2.0
413 2.0
414 4.0
415 -2.0
416 4.0
417 2.0
418 2.0
419 -2.0
420 -2.0
421 4.0
422 2.0
423 2.0
424 -2.0
425 4.0
426 -2.0
427 -2.0
428 2.0
429 2.0
430 -2.0
431 2.0
432 2.0
433 -2.0
434 -2.0
435 4.0
436 4.0
437 4.0
438 4.0
439 4.0
440 4.0
441 -2.0
442 2.0
443 4.0
444 4.0
445 2.0
446 2.0
447 2.0
448 2.0
449 4.0
450 2.0
451 2.0
452 -2.0
453 4.0
454 -2.0
455 -2.0
456 2.0
457 2.0
458 4.0
459 2.0
460 2.0
461 2.0
462 -2.0
463 -2.0
464 4.0
465 2.0
466 4.0
467 2.0
468 4.0
469 4.0
470 2.0
471 4.0
472 -2.0
473 -2.0
474 2.0
475 4.0
476 2.0
477 2.0
478 2.0
479 4.0
480 2.0
481 4.0
482 2.0
483 -2.0
484 4.0
485 -2.0
486 -2.0
487 2.0
488 -2.0
489 2.0
490 4.0
491 2.0
492 2.0
493 -2.0
494 -4.0
495 2.0
496 4.0
497 2.0
498 4.0
499 2.0
500 4.0
501 4.0
502 4.0
503 4.0
504 -2.0
505 -2.0
506 2.0
507 2.0
508 4.0
509 -2.0
510 4.0
511 4.0
512 2.0
513 4.0
514 -2.0
515 4.0
516 -2.0
517 -2.0
518 -2.0
519 4.0
520 -2.0
521 4.0
522 -2.0
523 2.0
524 2.0
525 2.0
526 2.0
527 -2.0
528 -4.0
529 2.0
530 4.0
531 2.0
532 4.0
533 2.0
534 4.0
535 2.0
536 -2.0
537 2.0
538 2.0
539 2.0
540 4.0
541 4.0
542 4.0
543 2.0
544 -2.0
545 4.0
546 2.0
547 4.0
548 2.0
549 4.0
550 4.0
551 -2.0
552 4.0
553 -2.0
554 -2.0
555 -2.0
556 4.0
557 -2.0
558 2.0
559 -2.0
560 4.0
561 -2.0
562 2.0
563 2.0
564 2.0
565 -4.0
566 2.0
567 -4.0
568 2.0
569 -2.0
570 4.0
571 2.0
572 4.0
573 2.0
574 4.0
575 4.0
576 4.0
577 4.0
578 4.0
579 2.0
580 2.0
581 2.0
582 2.0
583 4.0
584 2.0
585 2.0
586 -2.0
587 4.0
588 2.0
589 2.0
590 4.0
591 2.0
592 4.0
593 -2.0
594 4.0
595 -2.0
596 4.0
597 -2.0
598 -2.0
599 4.0
600 -2.0
601 2.0
602 -2.0
603 4.0
604 -2.0
605 2.0
606 2.0
607 -2.0
608 2.0
609 -2.0
610 2.0
611 -2.0
612 2.0
613 2.0
614 -4.0
615 4.0
616 2.0
617 2.0
618 2.0
619 2.0
620 4.0
621 4.0
622 -2.0
623 4.0
624 2.0
625 4.0
626 2.0
627 2.0
628 2.0
629 4.0
630 -2.0
0.0 # objective constant
1.79769313486232E+308 # value for infinity
0.0 # default variable primal value in starting point
0 # number of non-default variable primal values in starting point
0.0 # default variable bound dual value in starting point
0 # number of non-default variable bound dual values in starting point
0 # number of non-default variable names
0 # number of non-default constraint names
